============================[ Problem Statistics ]=============================|                                                                             ||  Number of variables:          4242                                         ||  Number of clauses:           10100                                         ||  Parse time:                   0.49 s                                       ||                                                                             |============================[ Search Statistics ]==============================| Conflicts |          ORIGINAL         |          LEARNT          | Progress ||           |    Vars  Clauses Literals |    Limit  Clauses Lit/Cl |          |===============================================================================|       100 |    1591     6305   778656 |     2311      100     53 | 62.501 % ||       250 |    1591     6305   778656 |     2543      250     75 | 62.495 % |===============================================================================restarts              : 3conflicts             : 274            (369 /sec)decisions             : 540            (0.00 % random) (728 /sec)propagations          : 11802          (15906 /sec)conflict literals     : 21178          (94.81 % deleted)CPU time              : 0.742 sSATISFIABLE